NAME : lin105
TYPE : OP
DIMENSION : 105
COST_LIMIT : 7190
ROUTE_NODES : 63
ROUTE_SCORE : 3530
ROUTE_COST : 7145
NODE_SEQUENCE_SECTION
1
3
8
16
18
25
26
37
42
41
43
46
52
44
47
51
54
57
62
69
74
75
81
80
76
73
72
77
79
84
83
82
78
71
68
67
64
105
59
56
55
50
48
45
40
104
33
32
31
30
28
23
20
103
29
22
21
15
11
10
7
6
2
-1
DEPOT_SECTION
1
-1
EOF
